c 21_4_checker.cnf
c
c field = 21
c formula set type = 4_checker
c
p cnf 5 38
32 
34 
36 
38 
-30 
33 
35 
37 
39 
-31 
32 
34 
36 
38 
-42 
33 
35 
37 
39 
-43 
34 
36 
38 
42 
-32 
35 
37 
39 
43 
-33 
34 
36 
38 
42 
-44 
35 
37 
39 
43 
-45 
36 
38 
42 
44 
-34 
37 
39 
43 
45 
-35 
36 
38 
42 
44 
-46 
37 
39 
43 
45 
-47 
38 
42 
44 
46 
-36 
39 
43 
45 
47 
-37 
38 
42 
44 
46 
-48 
39 
43 
45 
47 
-49 
42 
44 
46 
48 
-38 
43 
45 
47 
49 
-39 
42 
44 
46 
48 
-50 
43 
45 
47 
49 
-51 
10 
70 
100 
130 
-160 
11 
71 
101 
131 
-161 
70 
100 
130 
160 
-10 
71 
101 
131 
161 
-11 
70 
100 
130 
160 
-190 
71 
101 
131 
161 
-191 
8 
72 
104 
136 
-168 
9 
73 
105 
137 
-169 
72 
104 
136 
168 
-8 
73 
105 
137 
169 
-9 
72 
104 
136 
168 
-200 
73 
105 
137 
169 
-201 
12 
68 
96 
124 
-152 
13 
69 
97 
125 
-153 
68 
96 
124 
152 
-12 
69 
97 
125 
153 
-13 
68 
96 
124 
152 
-180 
69 
97 
125 
153 
-181 
